1600 3120
1 2 4
1 41 3
2 3 1
2 42 3
3 4 1
3 43 3
4 5 2
4 44 2
5 6 3
5 45 2
6 7 1
6 46 3
7 8 4
7 47 4
8 9 2
8 48 5
9 10 4
9 49 3
10 11 5
10 50 5
11 12 1
11 51 1
12 13 5
12 52 2
13 14 5
13 53 2
14 15 2
14 54 2
15 16 5
15 55 5
16 17 1
16 56 1
17 18 1
17 57 5
18 19 1
18 58 1
19 20 4
19 59 1
20 21 2
20 60 5
21 22 5
21 61 3
22 23 1
22 62 5
23 24 5
23 63 4
24 25 3
24 64 2
25 26 3
25 65 1
26 27 4
26 66 1
27 28 3
27 67 2
28 29 5
28 68 3
29 30 3
29 69 5
30 31 5
30 70 4
31 32 3
31 71 5
32 33 3
32 72 2
33 34 4
33 73 2
34 35 5
34 74 4
35 36 2
35 75 1
36 37 5
36 76 2
37 38 4
37 77 3
38 39 2
38 78 2
39 40 4
39 79 2
40 80 4
41 42 1
41 81 1
42 43 1
42 82 1
43 44 2
43 83 4
44 45 2
44 84 1
45 46 1
45 85 2
46 47 5
46 86 3
47 48 5
47 87 4
48 49 2
48 88 1
49 50 5
49 89 2
50 51 3
50 90 3
51 52 5
51 91 5
52 53 1
52 92 4
53 54 4
53 93 4
54 55 1
54 94 5
55 56 1
55 95 2
56 57 1
56 96 3
57 58 3
57 97 1
58 59 5
58 98 4
59 60 3
59 99 4
60 61 1
60 100 1
61 62 5
61 101 1
62 63 4
62 102 1
63 64 4
63 103 3
64 65 2
64 104 4
65 66 5
65 105 2
66 67 2
66 106 5
67 68 1
67 107 2
68 69 2
68 108 1
69 70 2
69 109 4
70 71 3
70 110 5
71 72 1
71 111 1
72 73 5
72 112 5
73 74 3
73 113 5
74 75 5
74 114 5
75 76 5
75 115 1
76 77 1
76 116 1
77 78 3
77 117 4
78 79 2
78 118 5
79 80 4
79 119 3
80 120 5
81 82 2
81 121 1
82 83 1
82 122 3
83 84 4
83 123 2
84 85 5
84 124 4
85 86 3
85 125 3
86 87 2
86 126 1
87 88 1
87 127 3
88 89 2
88 128 1
89 90 2
89 129 2
90 91 4
90 130 1
91 92 4
91 131 3
92 93 4
92 132 2
93 94 1
93 133 3
94 95 2
94 134 2
95 96 4
95 135 5
96 97 2
96 136 3
97 98 3
97 137 3
98 99 1
98 138 1
99 100 3
99 139 2
100 101 3
100 140 5
101 102 3
101 141 5
102 103 1
102 142 5
103 104 5
103 143 4
104 105 3
104 144 1
105 106 1
105 145 1
106 107 1
106 146 2
107 108 3
107 147 3
108 109 4
108 148 1
109 110 4
109 149 4
110 111 4
110 150 3
111 112 1
111 151 1
112 113 5
112 152 3
113 114 3
113 153 4
114 115 3
114 154 4
115 116 2
115 155 5
116 117 1
116 156 4
117 118 3
117 157 4
118 119 5
118 158 5
119 120 1
119 159 5
120 160 4
121 122 1
121 161 5
122 123 4
122 162 3
123 124 4
123 163 3
124 125 3
124 164 2
125 126 3
125 165 4
126 127 5
126 166 5
127 128 4
127 167 3
128 129 5
128 168 1
129 130 3
129 169 5
130 131 2
130 170 1
131 132 2
131 171 4
132 133 2
132 172 5
133 134 5
133 173 2
134 135 1
134 174 3
135 136 2
135 175 3
136 137 4
136 176 3
137 138 2
137 177 2
138 139 5
138 178 2
139 140 5
139 179 2
140 141 1
140 180 4
141 142 1
141 181 5
142 143 2
142 182 1
143 144 4
143 183 3
144 145 2
144 184 5
145 146 1
145 185 3
146 147 2
146 186 4
147 148 5
147 187 2
148 149 5
148 188 5
149 150 5
149 189 2
150 151 5
150 190 3
151 152 2
151 191 5
152 153 1
152 192 1
153 154 2
153 193 4
154 155 2
154 194 1
155 156 1
155 195 4
156 157 5
156 196 5
157 158 2
157 197 1
158 159 2
158 198 2
159 160 5
159 199 1
160 200 4
161 162 3
161 201 5
162 163 3
162 202 3
163 164 1
163 203 5
164 165 2
164 204 1
165 166 5
165 205 4
166 167 3
166 206 5
167 168 4
167 207 5
168 169 2
168 208 4
169 170 4
169 209 4
170 171 1
170 210 3
171 172 3
171 211 5
172 173 4
172 212 5
173 174 3
173 213 3
174 175 5
174 214 5
175 176 3
175 215 1
176 177 2
176 216 4
177 178 3
177 217 5
178 179 4
178 218 2
179 180 5
179 219 4
180 181 5
180 220 5
181 182 3
181 221 2
182 183 1
182 222 4
183 184 4
183 223 5
184 185 2
184 224 3
185 186 2
185 225 1
186 187 3
186 226 2
187 188 3
187 227 3
188 189 3
188 228 5
189 190 3
189 229 1
190 191 2
190 230 4
191 192 4
191 231 5
192 193 5
192 232 1
193 194 2
193 233 5
194 195 1
194 234 4
195 196 5
195 235 3
196 197 3
196 236 5
197 198 3
197 237 5
198 199 4
198 238 1
199 200 3
199 239 4
200 240 3
201 202 4
201 241 3
202 203 5
202 242 1
203 204 4
203 243 3
204 205 3
204 244 5
205 206 2
205 245 3
206 207 3
206 246 2
207 208 2
207 247 1
208 209 2
208 248 2
209 210 1
209 249 3
210 211 1
210 250 4
211 212 3
211 251 5
212 213 3
212 252 2
213 214 4
213 253 1
214 215 3
214 254 3
215 216 2
215 255 1
216 217 5
216 256 2
217 218 3
217 257 5
218 219 2
218 258 4
219 220 2
219 259 2
220 221 1
220 260 1
221 222 4
221 261 1
222 223 5
222 262 3
223 224 1
223 263 4
224 225 5
224 264 2
225 226 5
225 265 3
226 227 3
226 266 5
227 228 2
227 267 3
228 229 5
228 268 2
229 230 5
229 269 1
230 231 3
230 270 4
231 232 2
231 271 3
232 233 3
232 272 3
233 234 3
233 273 3
234 235 1
234 274 1
235 236 5
235 275 1
236 237 3
236 276 5
237 238 2
237 277 4
238 239 5
238 278 1
239 240 5
239 279 1
240 280 4
241 242 4
241 281 5
242 243 5
242 282 4
243 244 1
243 283 2
244 245 5
244 284 1
245 246 5
245 285 3
246 247 3
246 286 5
247 248 4
247 287 4
248 249 1
248 288 2
249 250 3
249 289 3
250 251 3
250 290 3
251 252 1
251 291 4
252 253 5
252 292 5
253 254 2
253 293 1
254 255 4
254 294 4
255 256 5
255 295 5
256 257 3
256 296 4
257 258 5
257 297 2
258 259 2
258 298 2
259 260 1
259 299 5
260 261 5
260 300 4
261 262 2
261 301 4
262 263 2
262 302 5
263 264 4
263 303 3
264 265 3
264 304 2
265 266 3
265 305 1
266 267 4
266 306 5
267 268 5
267 307 5
268 269 3
268 308 5
269 270 4
269 309 2
270 271 4
270 310 4
271 272 1
271 311 4
272 273 2
272 312 3
273 274 3
273 313 1
274 275 1
274 314 4
275 276 3
275 315 3
276 277 3
276 316 3
277 278 2
277 317 5
278 279 4
278 318 4
279 280 1
279 319 2
280 320 2
281 282 4
281 321 4
282 283 5
282 322 4
283 284 1
283 323 2
284 285 4
284 324 2
285 286 3
285 325 2
286 287 1
286 326 1
287 288 3
287 327 2
288 289 3
288 328 1
289 290 4
289 329 4
290 291 3
290 330 3
291 292 2
291 331 5
292 293 4
292 332 1
293 294 4
293 333 2
294 295 2
294 334 5
295 296 4
295 335 2
296 297 2
296 336 4
297 298 2
297 337 2
298 299 5
298 338 1
299 300 5
299 339 1
300 301 4
300 340 1
301 302 5
301 341 4
302 303 3
302 342 3
303 304 2
303 343 4
304 305 5
304 344 1
305 306 1
305 345 5
306 307 2
306 346 4
307 308 4
307 347 3
308 309 5
308 348 1
309 310 1
309 349 5
310 311 1
310 350 5
311 312 5
311 351 4
312 313 2
312 352 2
313 314 3
313 353 4
314 315 4
314 354 5
315 316 4
315 355 1
316 317 4
316 356 2
317 318 5
317 357 3
318 319 5
318 358 5
319 320 2
319 359 3
320 360 3
321 322 5
321 361 2
322 323 4
322 362 5
323 324 1
323 363 1
324 325 2
324 364 3
325 326 3
325 365 1
326 327 1
326 366 1
327 328 4
327 367 1
328 329 2
328 368 5
329 330 3
329 369 5
330 331 1
330 370 2
331 332 3
331 371 1
332 333 4
332 372 5
333 334 3
333 373 2
334 335 5
334 374 3
335 336 3
335 375 5
336 337 4
336 376 3
337 338 1
337 377 2
338 339 5
338 378 3
339 340 5
339 379 4
340 341 5
340 380 2
341 342 2
341 381 4
342 343 1
342 382 4
343 344 4
343 383 2
344 345 3
344 384 5
345 346 3
345 385 4
346 347 4
346 386 4
347 348 2
347 387 3
348 349 3
348 388 4
349 350 5
349 389 2
350 351 5
350 390 4
351 352 5
351 391 2
352 353 5
352 392 3
353 354 3
353 393 1
354 355 3
354 394 3
355 356 4
355 395 2
356 357 5
356 396 2
357 358 1
357 397 3
358 359 2
358 398 1
359 360 4
359 399 5
360 400 1
361 362 3
361 401 3
362 363 3
362 402 2
363 364 1
363 403 4
364 365 5
364 404 4
365 366 4
365 405 2
366 367 1
366 406 3
367 368 2
367 407 1
368 369 4
368 408 5
369 370 2
369 409 4
370 371 1
370 410 1
371 372 3
371 411 2
372 373 2
372 412 3
373 374 4
373 413 5
374 375 5
374 414 2
375 376 1
375 415 3
376 377 2
376 416 4
377 378 3
377 417 4
378 379 4
378 418 2
379 380 5
379 419 5
380 381 2
380 420 4
381 382 5
381 421 1
382 383 3
382 422 1
383 384 1
383 423 2
384 385 1
384 424 4
385 386 5
385 425 3
386 387 1
386 426 5
387 388 5
387 427 3
388 389 2
388 428 5
389 390 3
389 429 5
390 391 4
390 430 1
391 392 1
391 431 5
392 393 5
392 432 5
393 394 1
393 433 4
394 395 3
394 434 1
395 396 5
395 435 4
396 397 4
396 436 5
397 398 2
397 437 1
398 399 5
398 438 3
399 400 2
399 439 5
400 440 1
401 402 4
401 441 2
402 403 3
402 442 3
403 404 4
403 443 2
404 405 5
404 444 2
405 406 5
405 445 1
406 407 5
406 446 2
407 408 1
407 447 4
408 409 3
408 448 4
409 410 2
409 449 5
410 411 1
410 450 5
411 412 4
411 451 3
412 413 1
412 452 2
413 414 3
413 453 1
414 415 3
414 454 5
415 416 1
415 455 3
416 417 3
416 456 3
417 418 4
417 457 4
418 419 5
418 458 5
419 420 1
419 459 3
420 421 1
420 460 1
421 422 3
421 461 2
422 423 2
422 462 4
423 424 4
423 463 2
424 425 2
424 464 2
425 426 5
425 465 1
426 427 2
426 466 5
427 428 2
427 467 5
428 429 1
428 468 4
429 430 2
429 469 1
430 431 5
430 470 4
431 432 4
431 471 1
432 433 2
432 472 3
433 434 4
433 473 1
434 435 3
434 474 3
435 436 4
435 475 1
436 437 5
436 476 5
437 438 2
437 477 4
438 439 5
438 478 5
439 440 5
439 479 4
440 480 5
441 442 3
441 481 5
442 443 1
442 482 3
443 444 5
443 483 5
444 445 2
444 484 4
445 446 5
445 485 3
446 447 4
446 486 5
447 448 5
447 487 3
448 449 3
448 488 1
449 450 1
449 489 1
450 451 5
450 490 5
451 452 3
451 491 4
452 453 4
452 492 1
453 454 4
453 493 2
454 455 4
454 494 4
455 456 2
455 495 4
456 457 5
456 496 1
457 458 5
457 497 4
458 459 2
458 498 4
459 460 4
459 499 2
460 461 5
460 500 4
461 462 5
461 501 2
462 463 5
462 502 5
463 464 3
463 503 3
464 465 4
464 504 4
465 466 1
465 505 3
466 467 2
466 506 3
467 468 3
467 507 1
468 469 3
468 508 4
469 470 4
469 509 1
470 471 5
470 510 3
471 472 1
471 511 2
472 473 3
472 512 3
473 474 3
473 513 3
474 475 3
474 514 3
475 476 2
475 515 5
476 477 2
476 516 4
477 478 5
477 517 5
478 479 3
478 518 5
479 480 4
479 519 3
480 520 4
481 482 2
481 521 1
482 483 5
482 522 3
483 484 3
483 523 5
484 485 1
484 524 5
485 486 3
485 525 5
486 487 5
486 526 2
487 488 5
487 527 2
488 489 3
488 528 4
489 490 5
489 529 4
490 491 3
490 530 1
491 492 3
491 531 5
492 493 1
492 532 3
493 494 3
493 533 2
494 495 5
494 534 2
495 496 4
495 535 1
496 497 3
496 536 4
497 498 5
497 537 2
498 499 4
498 538 5
499 500 1
499 539 4
500 501 5
500 540 2
501 502 4
501 541 2
502 503 1
502 542 3
503 504 2
503 543 1
504 505 5
504 544 5
505 506 5
505 545 5
506 507 3
506 546 1
507 508 4
507 547 2
508 509 3
508 548 5
509 510 2
509 549 1
510 511 2
510 550 5
511 512 1
511 551 5
512 513 1
512 552 3
513 514 1
513 553 4
514 515 4
514 554 5
515 516 1
515 555 5
516 517 1
516 556 5
517 518 1
517 557 5
518 519 1
518 558 1
519 520 3
519 559 2
520 560 5
521 522 1
521 561 2
522 523 3
522 562 4
523 524 5
523 563 1
524 525 1
524 564 4
525 526 2
525 565 1
526 527 5
526 566 5
527 528 2
527 567 4
528 529 5
528 568 1
529 530 4
529 569 2
530 531 4
530 570 1
531 532 5
531 571 5
532 533 2
532 572 1
533 534 4
533 573 3
534 535 3
534 574 2
535 536 4
535 575 5
536 537 4
536 576 5
537 538 1
537 577 2
538 539 5
538 578 2
539 540 5
539 579 2
540 541 2
540 580 2
541 542 5
541 581 4
542 543 4
542 582 2
543 544 1
543 583 2
544 545 1
544 584 5
545 546 1
545 585 2
546 547 5
546 586 3
547 548 4
547 587 1
548 549 4
548 588 5
549 550 4
549 589 3
550 551 5
550 590 2
551 552 4
551 591 1
552 553 1
552 592 2
553 554 4
553 593 1
554 555 4
554 594 1
555 556 2
555 595 2
556 557 3
556 596 4
557 558 4
557 597 4
558 559 4
558 598 3
559 560 4
559 599 2
560 600 2
561 562 5
561 601 4
562 563 4
562 602 4
563 564 1
563 603 4
564 565 4
564 604 1
565 566 3
565 605 4
566 567 1
566 606 3
567 568 2
567 607 3
568 569 4
568 608 2
569 570 3
569 609 3
570 571 1
570 610 1
571 572 3
571 611 3
572 573 3
572 612 1
573 574 2
573 613 5
574 575 1
574 614 4
575 576 4
575 615 4
576 577 2
576 616 4
577 578 4
577 617 5
578 579 2
578 618 3
579 580 1
579 619 3
580 581 2
580 620 5
581 582 4
581 621 3
582 583 4
582 622 3
583 584 3
583 623 5
584 585 1
584 624 2
585 586 2
585 625 2
586 587 5
586 626 1
587 588 2
587 627 5
588 589 2
588 628 4
589 590 1
589 629 3
590 591 4
590 630 4
591 592 5
591 631 3
592 593 5
592 632 2
593 594 5
593 633 1
594 595 3
594 634 4
595 596 5
595 635 4
596 597 5
596 636 2
597 598 2
597 637 5
598 599 4
598 638 1
599 600 3
599 639 1
600 640 5
601 602 1
601 641 2
602 603 3
602 642 4
603 604 1
603 643 2
604 605 4
604 644 1
605 606 1
605 645 4
606 607 4
606 646 3
607 608 2
607 647 3
608 609 2
608 648 1
609 610 5
609 649 4
610 611 1
610 650 1
611 612 5
611 651 5
612 613 2
612 652 1
613 614 3
613 653 4
614 615 4
614 654 4
615 616 3
615 655 3
616 617 3
616 656 2
617 618 2
617 657 4
618 619 5
618 658 1
619 620 2
619 659 5
620 621 3
620 660 4
621 622 5
621 661 3
622 623 3
622 662 5
623 624 2
623 663 2
624 625 5
624 664 3
625 626 5
625 665 2
626 627 5
626 666 4
627 628 3
627 667 2
628 629 4
628 668 4
629 630 3
629 669 1
630 631 4
630 670 2
631 632 2
631 671 3
632 633 4
632 672 3
633 634 1
633 673 2
634 635 4
634 674 4
635 636 5
635 675 4
636 637 5
636 676 4
637 638 1
637 677 2
638 639 4
638 678 5
639 640 3
639 679 2
640 680 4
641 642 4
641 681 4
642 643 4
642 682 5
643 644 1
643 683 3
644 645 5
644 684 2
645 646 5
645 685 2
646 647 2
646 686 1
647 648 4
647 687 3
648 649 4
648 688 3
649 650 1
649 689 5
650 651 5
650 690 3
651 652 4
651 691 2
652 653 3
652 692 1
653 654 2
653 693 5
654 655 1
654 694 2
655 656 1
655 695 1
656 657 3
656 696 3
657 658 2
657 697 4
658 659 4
658 698 5
659 660 4
659 699 1
660 661 4
660 700 3
661 662 2
661 701 1
662 663 4
662 702 4
663 664 3
663 703 4
664 665 5
664 704 1
665 666 3
665 705 5
666 667 2
666 706 4
667 668 2
667 707 4
668 669 5
668 708 5
669 670 2
669 709 2
670 671 4
670 710 1
671 672 1
671 711 3
672 673 3
672 712 1
673 674 5
673 713 3
674 675 4
674 714 5
675 676 4
675 715 2
676 677 2
676 716 5
677 678 4
677 717 3
678 679 4
678 718 3
679 680 2
679 719 4
680 720 4
681 682 3
681 721 1
682 683 3
682 722 2
683 684 2
683 723 2
684 685 1
684 724 3
685 686 5
685 725 4
686 687 4
686 726 4
687 688 4
687 727 4
688 689 4
688 728 2
689 690 5
689 729 5
690 691 5
690 730 2
691 692 1
691 731 4
692 693 3
692 732 4
693 694 4
693 733 3
694 695 2
694 734 5
695 696 2
695 735 4
696 697 5
696 736 3
697 698 5
697 737 4
698 699 1
698 738 4
699 700 2
699 739 1
700 701 2
700 740 3
701 702 2
701 741 3
702 703 5
702 742 5
703 704 2
703 743 5
704 705 2
704 744 2
705 706 1
705 745 5
706 707 3
706 746 1
707 708 3
707 747 5
708 709 2
708 748 1
709 710 5
709 749 2
710 711 3
710 750 1
711 712 2
711 751 5
712 713 5
712 752 2
713 714 4
713 753 3
714 715 3
714 754 5
715 716 3
715 755 3
716 717 5
716 756 2
717 718 1
717 757 1
718 719 2
718 758 2
719 720 1
719 759 4
720 760 1
721 722 3
721 761 1
722 723 1
722 762 3
723 724 5
723 763 4
724 725 4
724 764 2
725 726 3
725 765 5
726 727 2
726 766 5
727 728 4
727 767 1
728 729 4
728 768 1
729 730 4
729 769 4
730 731 1
730 770 5
731 732 5
731 771 3
732 733 4
732 772 3
733 734 5
733 773 4
734 735 5
734 774 3
735 736 2
735 775 2
736 737 2
736 776 3
737 738 2
737 777 4
738 739 5
738 778 2
739 740 1
739 779 3
740 741 4
740 780 1
741 742 4
741 781 3
742 743 4
742 782 2
743 744 2
743 783 3
744 745 1
744 784 3
745 746 2
745 785 3
746 747 3
746 786 3
747 748 4
747 787 3
748 749 3
748 788 5
749 750 1
749 789 4
750 751 1
750 790 4
751 752 1
751 791 2
752 753 3
752 792 5
753 754 3
753 793 2
754 755 1
754 794 4
755 756 5
755 795 4
756 757 2
756 796 4
757 758 2
757 797 4
758 759 4
758 798 1
759 760 4
759 799 1
760 800 4
761 762 3
761 801 3
762 763 3
762 802 1
763 764 1
763 803 2
764 765 2
764 804 1
765 766 1
765 805 1
766 767 3
766 806 1
767 768 3
767 807 5
768 769 5
768 808 4
769 770 1
769 809 1
770 771 3
770 810 3
771 772 2
771 811 1
772 773 3
772 812 4
773 774 5
773 813 2
774 775 1
774 814 2
775 776 1
775 815 1
776 777 5
776 816 3
777 778 3
777 817 4
778 779 2
778 818 5
779 780 3
779 819 1
780 781 5
780 820 3
781 782 3
781 821 3
782 783 4
782 822 3
783 784 2
783 823 3
784 785 3
784 824 3
785 786 5
785 825 1
786 787 1
786 826 2
787 788 3
787 827 5
788 789 3
788 828 3
789 790 3
789 829 1
790 791 4
790 830 1
791 792 3
791 831 5
792 793 4
792 832 2
793 794 2
793 833 1
794 795 5
794 834 5
795 796 1
795 835 5
796 797 2
796 836 4
797 798 5
797 837 4
798 799 3
798 838 5
799 800 3
799 839 1
800 840 4
801 802 4
801 841 1
802 803 5
802 842 5
803 804 1
803 843 3
804 805 3
804 844 5
805 806 5
805 845 4
806 807 1
806 846 4
807 808 3
807 847 5
808 809 5
808 848 3
809 810 3
809 849 5
810 811 5
810 850 1
811 812 5
811 851 4
812 813 1
812 852 1
813 814 2
813 853 5
814 815 2
814 854 1
815 816 4
815 855 5
816 817 3
816 856 4
817 818 1
817 857 2
818 819 1
818 858 4
819 820 4
819 859 5
820 821 3
820 860 5
821 822 4
821 861 5
822 823 4
822 862 1
823 824 5
823 863 5
824 825 2
824 864 4
825 826 3
825 865 5
826 827 1
826 866 2
827 828 5
827 867 5
828 829 2
828 868 3
829 830 4
829 869 4
830 831 4
830 870 2
831 832 1
831 871 5
832 833 4
832 872 5
833 834 1
833 873 1
834 835 4
834 874 5
835 836 5
835 875 3
836 837 3
836 876 5
837 838 2
837 877 2
838 839 1
838 878 5
839 840 1
839 879 3
840 880 4
841 842 5
841 881 1
842 843 1
842 882 4
843 844 5
843 883 5
844 845 3
844 884 4
845 846 5
845 885 4
846 847 4
846 886 3
847 848 3
847 887 3
848 849 5
848 888 2
849 850 2
849 889 3
850 851 1
850 890 3
851 852 4
851 891 4
852 853 2
852 892 1
853 854 3
853 893 4
854 855 4
854 894 1
855 856 2
855 895 3
856 857 2
856 896 4
857 858 4
857 897 1
858 859 3
858 898 5
859 860 4
859 899 1
860 861 5
860 900 4
861 862 5
861 901 4
862 863 2
862 902 4
863 864 1
863 903 3
864 865 1
864 904 1
865 866 4
865 905 1
866 867 5
866 906 3
867 868 2
867 907 5
868 869 2
868 908 4
869 870 1
869 909 2
870 871 3
870 910 4
871 872 1
871 911 1
872 873 3
872 912 1
873 874 5
873 913 5
874 875 3
874 914 4
875 876 4
875 915 5
876 877 3
876 916 5
877 878 4
877 917 4
878 879 4
878 918 2
879 880 5
879 919 4
880 920 1
881 882 4
881 921 4
882 883 1
882 922 4
883 884 1
883 923 2
884 885 3
884 924 4
885 886 3
885 925 2
886 887 3
886 926 2
887 888 5
887 927 5
888 889 4
888 928 3
889 890 4
889 929 1
890 891 4
890 930 4
891 892 5
891 931 1
892 893 5
892 932 5
893 894 1
893 933 1
894 895 1
894 934 4
895 896 5
895 935 5
896 897 5
896 936 5
897 898 1
897 937 3
898 899 3
898 938 5
899 900 4
899 939 1
900 901 3
900 940 3
901 902 5
901 941 5
902 903 3
902 942 1
903 904 5
903 943 1
904 905 1
904 944 3
905 906 1
905 945 3
906 907 2
906 946 1
907 908 4
907 947 1
908 909 5
908 948 4
909 910 5
909 949 4
910 911 5
910 950 2
911 912 5
911 951 2
912 913 1
912 952 4
913 914 4
913 953 3
914 915 4
914 954 1
915 916 4
915 955 2
916 917 1
916 956 2
917 918 1
917 957 4
918 919 1
918 958 3
919 920 1
919 959 3
920 960 5
921 922 4
921 961 4
922 923 2
922 962 5
923 924 2
923 963 1
924 925 3
924 964 1
925 926 3
925 965 3
926 927 4
926 966 2
927 928 2
927 967 3
928 929 3
928 968 3
929 930 5
929 969 5
930 931 2
930 970 5
931 932 2
931 971 2
932 933 1
932 972 5
933 934 1
933 973 5
934 935 5
934 974 4
935 936 3
935 975 5
936 937 1
936 976 1
937 938 4
937 977 5
938 939 5
938 978 5
939 940 4
939 979 3
940 941 1
940 980 1
941 942 5
941 981 2
942 943 4
942 982 3
943 944 2
943 983 5
944 945 2
944 984 1
945 946 5
945 985 4
946 947 3
946 986 2
947 948 5
947 987 4
948 949 5
948 988 4
949 950 5
949 989 1
950 951 5
950 990 4
951 952 1
951 991 5
952 953 1
952 992 5
953 954 2
953 993 3
954 955 1
954 994 1
955 956 3
955 995 1
956 957 2
956 996 1
957 958 2
957 997 4
958 959 4
958 998 3
959 960 1
959 999 1
960 1000 2
961 962 5
961 1001 3
962 963 1
962 1002 4
963 964 3
963 1003 1
964 965 1
964 1004 5
965 966 4
965 1005 5
966 967 1
966 1006 2
967 968 3
967 1007 5
968 969 2
968 1008 2
969 970 2
969 1009 4
970 971 4
970 1010 1
971 972 2
971 1011 1
972 973 3
972 1012 1
973 974 3
973 1013 3
974 975 3
974 1014 2
975 976 4
975 1015 1
976 977 3
976 1016 4
977 978 1
977 1017 2
978 979 3
978 1018 5
979 980 3
979 1019 4
980 981 4
980 1020 3
981 982 3
981 1021 2
982 983 5
982 1022 4
983 984 3
983 1023 4
984 985 4
984 1024 1
985 986 1
985 1025 4
986 987 2
986 1026 5
987 988 5
987 1027 2
988 989 3
988 1028 2
989 990 2
989 1029 4
990 991 2
990 1030 5
991 992 5
991 1031 2
992 993 1
992 1032 3
993 994 4
993 1033 1
994 995 5
994 1034 1
995 996 4
995 1035 3
996 997 1
996 1036 2
997 998 2
997 1037 3
998 999 4
998 1038 1
999 1000 3
999 1039 1
1000 1040 4
1001 1002 4
1001 1041 2
1002 1003 5
1002 1042 2
1003 1004 4
1003 1043 2
1004 1005 5
1004 1044 4
1005 1006 1
1005 1045 3
1006 1007 4
1006 1046 5
1007 1008 2
1007 1047 2
1008 1009 1
1008 1048 4
1009 1010 5
1009 1049 5
1010 1011 1
1010 1050 1
1011 1012 2
1011 1051 4
1012 1013 4
1012 1052 3
1013 1014 1
1013 1053 5
1014 1015 2
1014 1054 5
1015 1016 2
1015 1055 2
1016 1017 2
1016 1056 2
1017 1018 2
1017 1057 4
1018 1019 1
1018 1058 1
1019 1020 5
1019 1059 2
1020 1021 1
1020 1060 3
1021 1022 3
1021 1061 1
1022 1023 3
1022 1062 4
1023 1024 2
1023 1063 1
1024 1025 2
1024 1064 4
1025 1026 4
1025 1065 3
1026 1027 2
1026 1066 3
1027 1028 4
1027 1067 5
1028 1029 3
1028 1068 3
1029 1030 5
1029 1069 2
1030 1031 3
1030 1070 1
1031 1032 1
1031 1071 5
1032 1033 5
1032 1072 4
1033 1034 5
1033 1073 5
1034 1035 1
1034 1074 2
1035 1036 3
1035 1075 3
1036 1037 5
1036 1076 5
1037 1038 2
1037 1077 2
1038 1039 5
1038 1078 1
1039 1040 2
1039 1079 3
1040 1080 4
1041 1042 1
1041 1081 3
1042 1043 4
1042 1082 1
1043 1044 3
1043 1083 3
1044 1045 2
1044 1084 5
1045 1046 3
1045 1085 2
1046 1047 1
1046 1086 1
1047 1048 3
1047 1087 3
1048 1049 3
1048 1088 2
1049 1050 1
1049 1089 4
1050 1051 1
1050 1090 5
1051 1052 2
1051 1091 3
1052 1053 4
1052 1092 3
1053 1054 5
1053 1093 1
1054 1055 2
1054 1094 4
1055 1056 1
1055 1095 4
1056 1057 4
1056 1096 3
1057 1058 1
1057 1097 2
1058 1059 1
1058 1098 5
1059 1060 5
1059 1099 1
1060 1061 1
1060 1100 1
1061 1062 5
1061 1101 4
1062 1063 1
1062 1102 1
1063 1064 5
1063 1103 1
1064 1065 5
1064 1104 5
1065 1066 4
1065 1105 5
1066 1067 2
1066 1106 3
1067 1068 4
1067 1107 5
1068 1069 4
1068 1108 5
1069 1070 5
1069 1109 1
1070 1071 2
1070 1110 2
1071 1072 5
1071 1111 4
1072 1073 1
1072 1112 1
1073 1074 4
1073 1113 1
1074 1075 2
1074 1114 1
1075 1076 4
1075 1115 3
1076 1077 3
1076 1116 5
1077 1078 1
1077 1117 2
1078 1079 1
1078 1118 2
1079 1080 5
1079 1119 2
1080 1120 4
1081 1082 3
1081 1121 1
1082 1083 4
1082 1122 5
1083 1084 5
1083 1123 1
1084 1085 4
1084 1124 1
1085 1086 2
1085 1125 5
1086 1087 2
1086 1126 1
1087 1088 5
1087 1127 5
1088 1089 4
1088 1128 1
1089 1090 4
1089 1129 4
1090 1091 4
1090 1130 1
1091 1092 4
1091 1131 1
1092 1093 1
1092 1132 2
1093 1094 1
1093 1133 5
1094 1095 2
1094 1134 1
1095 1096 5
1095 1135 3
1096 1097 1
1096 1136 1
1097 1098 2
1097 1137 3
1098 1099 1
1098 1138 4
1099 1100 2
1099 1139 2
1100 1101 4
1100 1140 4
1101 1102 2
1101 1141 5
1102 1103 1
1102 1142 1
1103 1104 5
1103 1143 3
1104 1105 4
1104 1144 5
1105 1106 4
1105 1145 3
1106 1107 2
1106 1146 4
1107 1108 5
1107 1147 2
1108 1109 4
1108 1148 4
1109 1110 2
1109 1149 4
1110 1111 1
1110 1150 3
1111 1112 1
1111 1151 4
1112 1113 1
1112 1152 3
1113 1114 3
1113 1153 2
1114 1115 5
1114 1154 2
1115 1116 3
1115 1155 4
1116 1117 2
1116 1156 2
1117 1118 5
1117 1157 2
1118 1119 5
1118 1158 5
1119 1120 1
1119 1159 2
1120 1160 2
1121 1122 4
1121 1161 3
1122 1123 5
1122 1162 2
1123 1124 5
1123 1163 5
1124 1125 1
1124 1164 5
1125 1126 1
1125 1165 1
1126 1127 4
1126 1166 3
1127 1128 5
1127 1167 4
1128 1129 4
1128 1168 1
1129 1130 5
1129 1169 4
1130 1131 5
1130 1170 2
1131 1132 3
1131 1171 2
1132 1133 4
1132 1172 3
1133 1134 5
1133 1173 3
1134 1135 1
1134 1174 1
1135 1136 3
1135 1175 5
1136 1137 1
1136 1176 1
1137 1138 3
1137 1177 5
1138 1139 3
1138 1178 2
1139 1140 3
1139 1179 4
1140 1141 2
1140 1180 4
1141 1142 2
1141 1181 3
1142 1143 4
1142 1182 1
1143 1144 3
1143 1183 2
1144 1145 5
1144 1184 1
1145 1146 1
1145 1185 3
1146 1147 2
1146 1186 2
1147 1148 4
1147 1187 5
1148 1149 3
1148 1188 2
1149 1150 4
1149 1189 3
1150 1151 4
1150 1190 5
1151 1152 1
1151 1191 4
1152 1153 3
1152 1192 5
1153 1154 1
1153 1193 5
1154 1155 5
1154 1194 3
1155 1156 1
1155 1195 5
1156 1157 1
1156 1196 4
1157 1158 2
1157 1197 3
1158 1159 4
1158 1198 5
1159 1160 5
1159 1199 4
1160 1200 5
1161 1162 1
1161 1201 5
1162 1163 5
1162 1202 5
1163 1164 5
1163 1203 5
1164 1165 3
1164 1204 2
1165 1166 2
1165 1205 2
1166 1167 2
1166 1206 4
1167 1168 3
1167 1207 2
1168 1169 5
1168 1208 1
1169 1170 3
1169 1209 5
1170 1171 2
1170 1210 2
1171 1172 2
1171 1211 4
1172 1173 4
1172 1212 3
1173 1174 2
1173 1213 2
1174 1175 1
1174 1214 4
1175 1176 2
1175 1215 1
1176 1177 5
1176 1216 3
1177 1178 3
1177 1217 2
1178 1179 4
1178 1218 1
1179 1180 2
1179 1219 2
1180 1181 4
1180 1220 3
1181 1182 4
1181 1221 4
1182 1183 1
1182 1222 3
1183 1184 5
1183 1223 3
1184 1185 4
1184 1224 5
1185 1186 2
1185 1225 3
1186 1187 1
1186 1226 1
1187 1188 2
1187 1227 1
1188 1189 2
1188 1228 4
1189 1190 3
1189 1229 4
1190 1191 3
1190 1230 3
1191 1192 3
1191 1231 4
1192 1193 5
1192 1232 5
1193 1194 3
1193 1233 3
1194 1195 4
1194 1234 3
1195 1196 2
1195 1235 3
1196 1197 4
1196 1236 4
1197 1198 2
1197 1237 4
1198 1199 2
1198 1238 3
1199 1200 1
1199 1239 1
1200 1240 5
1201 1202 2
1201 1241 4
1202 1203 4
1202 1242 3
1203 1204 1
1203 1243 5
1204 1205 3
1204 1244 2
1205 1206 4
1205 1245 5
1206 1207 1
1206 1246 2
1207 1208 1
1207 1247 3
1208 1209 5
1208 1248 4
1209 1210 3
1209 1249 3
1210 1211 1
1210 1250 2
1211 1212 2
1211 1251 4
1212 1213 3
1212 1252 3
1213 1214 5
1213 1253 2
1214 1215 3
1214 1254 4
1215 1216 3
1215 1255 3
1216 1217 5
1216 1256 3
1217 1218 2
1217 1257 1
1218 1219 3
1218 1258 2
1219 1220 3
1219 1259 4
1220 1221 2
1220 1260 5
1221 1222 3
1221 1261 4
1222 1223 4
1222 1262 3
1223 1224 2
1223 1263 3
1224 1225 2
1224 1264 2
1225 1226 2
1225 1265 1
1226 1227 1
1226 1266 3
1227 1228 2
1227 1267 1
1228 1229 2
1228 1268 1
1229 1230 5
1229 1269 3
1230 1231 1
1230 1270 2
1231 1232 3
1231 1271 3
1232 1233 1
1232 1272 2
1233 1234 1
1233 1273 3
1234 1235 5
1234 1274 3
1235 1236 3
1235 1275 2
1236 1237 5
1236 1276 5
1237 1238 4
1237 1277 4
1238 1239 5
1238 1278 5
1239 1240 5
1239 1279 5
1240 1280 3
1241 1242 1
1241 1281 5
1242 1243 4
1242 1282 2
1243 1244 3
1243 1283 5
1244 1245 2
1244 1284 4
1245 1246 3
1245 1285 4
1246 1247 3
1246 1286 5
1247 1248 5
1247 1287 2
1248 1249 3
1248 1288 4
1249 1250 4
1249 1289 1
1250 1251 4
1250 1290 1
1251 1252 2
1251 1291 1
1252 1253 3
1252 1292 2
1253 1254 4
1253 1293 5
1254 1255 4
1254 1294 1
1255 1256 3
1255 1295 1
1256 1257 4
1256 1296 1
1257 1258 2
1257 1297 5
1258 1259 2
1258 1298 4
1259 1260 1
1259 1299 2
1260 1261 2
1260 1300 5
1261 1262 4
1261 1301 3
1262 1263 4
1262 1302 2
1263 1264 3
1263 1303 5
1264 1265 4
1264 1304 4
1265 1266 3
1265 1305 4
1266 1267 1
1266 1306 2
1267 1268 3
1267 1307 4
1268 1269 3
1268 1308 2
1269 1270 4
1269 1309 4
1270 1271 2
1270 1310 5
1271 1272 5
1271 1311 4
1272 1273 4
1272 1312 5
1273 1274 4
1273 1313 1
1274 1275 3
1274 1314 5
1275 1276 2
1275 1315 3
1276 1277 5
1276 1316 4
1277 1278 4
1277 1317 2
1278 1279 5
1278 1318 5
1279 1280 2
1279 1319 2
1280 1320 1
1281 1282 4
1281 1321 2
1282 1283 1
1282 1322 1
1283 1284 1
1283 1323 5
1284 1285 4
1284 1324 2
1285 1286 5
1285 1325 3
1286 1287 1
1286 1326 1
1287 1288 1
1287 1327 4
1288 1289 3
1288 1328 3
1289 1290 2
1289 1329 2
1290 1291 5
1290 1330 5
1291 1292 1
1291 1331 3
1292 1293 3
1292 1332 1
1293 1294 3
1293 1333 1
1294 1295 3
1294 1334 3
1295 1296 1
1295 1335 2
1296 1297 3
1296 1336 1
1297 1298 1
1297 1337 2
1298 1299 3
1298 1338 2
1299 1300 3
1299 1339 3
1300 1301 1
1300 1340 5
1301 1302 5
1301 1341 3
1302 1303 4
1302 1342 5
1303 1304 3
1303 1343 1
1304 1305 5
1304 1344 1
1305 1306 1
1305 1345 4
1306 1307 3
1306 1346 1
1307 1308 4
1307 1347 4
1308 1309 2
1308 1348 2
1309 1310 4
1309 1349 1
1310 1311 2
1310 1350 5
1311 1312 5
1311 1351 5
1312 1313 3
1312 1352 5
1313 1314 2
1313 1353 3
1314 1315 2
1314 1354 3
1315 1316 5
1315 1355 2
1316 1317 1
1316 1356 4
1317 1318 3
1317 1357 4
1318 1319 2
1318 1358 5
1319 1320 4
1319 1359 2
1320 1360 5
1321 1322 4
1321 1361 3
1322 1323 3
1322 1362 1
1323 1324 3
1323 1363 5
1324 1325 4
1324 1364 5
1325 1326 4
1325 1365 1
1326 1327 4
1326 1366 3
1327 1328 2
1327 1367 3
1328 1329 2
1328 1368 1
1329 1330 1
1329 1369 2
1330 1331 3
1330 1370 3
1331 1332 2
1331 1371 1
1332 1333 4
1332 1372 2
1333 1334 3
1333 1373 1
1334 1335 1
1334 1374 3
1335 1336 3
1335 1375 5
1336 1337 4
1336 1376 3
1337 1338 1
1337 1377 2
1338 1339 1
1338 1378 1
1339 1340 1
1339 1379 4
1340 1341 2
1340 1380 3
1341 1342 2
1341 1381 3
1342 1343 4
1342 1382 4
1343 1344 1
1343 1383 4
1344 1345 4
1344 1384 5
1345 1346 5
1345 1385 4
1346 1347 3
1346 1386 5
1347 1348 3
1347 1387 3
1348 1349 4
1348 1388 3
1349 1350 2
1349 1389 4
1350 1351 4
1350 1390 5
1351 1352 2
1351 1391 1
1352 1353 5
1352 1392 3
1353 1354 3
1353 1393 5
1354 1355 5
1354 1394 2
1355 1356 2
1355 1395 2
1356 1357 3
1356 1396 5
1357 1358 4
1357 1397 3
1358 1359 1
1358 1398 3
1359 1360 1
1359 1399 3
1360 1400 2
1361 1362 2
1361 1401 2
1362 1363 4
1362 1402 1
1363 1364 3
1363 1403 5
1364 1365 5
1364 1404 1
1365 1366 4
1365 1405 1
1366 1367 1
1366 1406 4
1367 1368 4
1367 1407 1
1368 1369 2
1368 1408 5
1369 1370 1
1369 1409 2
1370 1371 2
1370 1410 4
1371 1372 5
1371 1411 2
1372 1373 3
1372 1412 1
1373 1374 2
1373 1413 4
1374 1375 4
1374 1414 1
1375 1376 3
1375 1415 5
1376 1377 1
1376 1416 4
1377 1378 2
1377 1417 5
1378 1379 4
1378 1418 3
1379 1380 4
1379 1419 2
1380 1381 5
1380 1420 2
1381 1382 3
1381 1421 3
1382 1383 3
1382 1422 5
1383 1384 5
1383 1423 3
1384 1385 2
1384 1424 1
1385 1386 2
1385 1425 1
1386 1387 2
1386 1426 1
1387 1388 1
1387 1427 2
1388 1389 3
1388 1428 3
1389 1390 1
1389 1429 5
1390 1391 2
1390 1430 2
1391 1392 4
1391 1431 1
1392 1393 1
1392 1432 5
1393 1394 3
1393 1433 3
1394 1395 3
1394 1434 5
1395 1396 5
1395 1435 1
1396 1397 3
1396 1436 3
1397 1398 3
1397 1437 4
1398 1399 3
1398 1438 2
1399 1400 5
1399 1439 3
1400 1440 3
1401 1402 5
1401 1441 3
1402 1403 2
1402 1442 4
1403 1404 2
1403 1443 3
1404 1405 5
1404 1444 1
1405 1406 1
1405 1445 4
1406 1407 2
1406 1446 2
1407 1408 5
1407 1447 3
1408 1409 1
1408 1448 1
1409 1410 1
1409 1449 1
1410 1411 5
1410 1450 5
1411 1412 2
1411 1451 4
1412 1413 1
1412 1452 1
1413 1414 4
1413 1453 3
1414 1415 2
1414 1454 1
1415 1416 1
1415 1455 3
1416 1417 1
1416 1456 3
1417 1418 1
1417 1457 2
1418 1419 4
1418 1458 4
1419 1420 3
1419 1459 1
1420 1421 5
1420 1460 2
1421 1422 3
1421 1461 5
1422 1423 4
1422 1462 5
1423 1424 1
1423 1463 2
1424 1425 5
1424 1464 2
1425 1426 3
1425 1465 3
1426 1427 1
1426 1466 5
1427 1428 1
1427 1467 1
1428 1429 5
1428 1468 2
1429 1430 5
1429 1469 3
1430 1431 2
1430 1470 5
1431 1432 4
1431 1471 4
1432 1433 2
1432 1472 1
1433 1434 1
1433 1473 1
1434 1435 4
1434 1474 2
1435 1436 2
1435 1475 3
1436 1437 4
1436 1476 5
1437 1438 5
1437 1477 1
1438 1439 5
1438 1478 2
1439 1440 3
1439 1479 4
1440 1480 3
1441 1442 4
1441 1481 1
1442 1443 1
1442 1482 2
1443 1444 4
1443 1483 1
1444 1445 3
1444 1484 5
1445 1446 1
1445 1485 3
1446 1447 5
1446 1486 1
1447 1448 2
1447 1487 3
1448 1449 3
1448 1488 5
1449 1450 4
1449 1489 1
1450 1451 3
1450 1490 2
1451 1452 4
1451 1491 2
1452 1453 1
1452 1492 5
1453 1454 1
1453 1493 3
1454 1455 5
1454 1494 2
1455 1456 5
1455 1495 1
1456 1457 4
1456 1496 1
1457 1458 2
1457 1497 3
1458 1459 1
1458 1498 1
1459 1460 2
1459 1499 2
1460 1461 4
1460 1500 3
1461 1462 5
1461 1501 4
1462 1463 2
1462 1502 2
1463 1464 5
1463 1503 3
1464 1465 4
1464 1504 1
1465 1466 4
1465 1505 1
1466 1467 4
1466 1506 4
1467 1468 5
1467 1507 1
1468 1469 5
1468 1508 3
1469 1470 1
1469 1509 1
1470 1471 3
1470 1510 4
1471 1472 2
1471 1511 3
1472 1473 5
1472 1512 2
1473 1474 2
1473 1513 2
1474 1475 3
1474 1514 2
1475 1476 4
1475 1515 2
1476 1477 1
1476 1516 4
1477 1478 2
1477 1517 1
1478 1479 5
1478 1518 3
1479 1480 3
1479 1519 5
1480 1520 4
1481 1482 3
1481 1521 2
1482 1483 5
1482 1522 3
1483 1484 3
1483 1523 1
1484 1485 4
1484 1524 5
1485 1486 3
1485 1525 3
1486 1487 1
1486 1526 3
1487 1488 3
1487 1527 4
1488 1489 4
1488 1528 5
1489 1490 2
1489 1529 1
1490 1491 5
1490 1530 1
1491 1492 3
1491 1531 2
1492 1493 5
1492 1532 5
1493 1494 4
1493 1533 5
1494 1495 2
1494 1534 3
1495 1496 5
1495 1535 5
1496 1497 5
1496 1536 4
1497 1498 5
1497 1537 4
1498 1499 1
1498 1538 3
1499 1500 2
1499 1539 3
1500 1501 4
1500 1540 3
1501 1502 5
1501 1541 4
1502 1503 2
1502 1542 5
1503 1504 2
1503 1543 1
1504 1505 3
1504 1544 1
1505 1506 1
1505 1545 3
1506 1507 1
1506 1546 5
1507 1508 5
1507 1547 2
1508 1509 2
1508 1548 4
1509 1510 2
1509 1549 5
1510 1511 5
1510 1550 1
1511 1512 3
1511 1551 5
1512 1513 4
1512 1552 3
1513 1514 5
1513 1553 1
1514 1515 3
1514 1554 5
1515 1516 4
1515 1555 3
1516 1517 2
1516 1556 4
1517 1518 3
1517 1557 3
1518 1519 3
1518 1558 1
1519 1520 3
1519 1559 1
1520 1560 2
1521 1522 2
1521 1561 4
1522 1523 3
1522 1562 2
1523 1524 4
1523 1563 3
1524 1525 1
1524 1564 5
1525 1526 5
1525 1565 2
1526 1527 1
1526 1566 4
1527 1528 2
1527 1567 4
1528 1529 1
1528 1568 1
1529 1530 2
1529 1569 1
1530 1531 4
1530 1570 3
1531 1532 2
1531 1571 3
1532 1533 3
1532 1572 4
1533 1534 5
1533 1573 4
1534 1535 5
1534 1574 2
1535 1536 5
1535 1575 4
1536 1537 4
1536 1576 1
1537 1538 3
1537 1577 3
1538 1539 4
1538 1578 5
1539 1540 2
1539 1579 5
1540 1541 1
1540 1580 4
1541 1542 2
1541 1581 1
1542 1543 3
1542 1582 4
1543 1544 1
1543 1583 3
1544 1545 2
1544 1584 5
1545 1546 2
1545 1585 1
1546 1547 2
1546 1586 1
1547 1548 5
1547 1587 4
1548 1549 4
1548 1588 4
1549 1550 2
1549 1589 2
1550 1551 4
1550 1590 5
1551 1552 3
1551 1591 1
1552 1553 3
1552 1592 3
1553 1554 5
1553 1593 2
1554 1555 1
1554 1594 2
1555 1556 5
1555 1595 3
1556 1557 5
1556 1596 4
1557 1558 1
1557 1597 2
1558 1559 2
1558 1598 1
1559 1560 3
1559 1599 1
1560 1600 4
1561 1562 5
1562 1563 1
1563 1564 3
1564 1565 3
1565 1566 1
1566 1567 2
1567 1568 2
1568 1569 1
1569 1570 5
1570 1571 3
1571 1572 5
1572 1573 1
1573 1574 1
1574 1575 4
1575 1576 1
1576 1577 4
1577 1578 3
1578 1579 3
1579 1580 5
1580 1581 3
1581 1582 2
1582 1583 2
1583 1584 2
1584 1585 2
1585 1586 4
1586 1587 4
1587 1588 1
1588 1589 5
1589 1590 5
1590 1591 5
1591 1592 3
1592 1593 4
1593 1594 1
1594 1595 5
1595 1596 2
1596 1597 4
1597 1598 3
1598 1599 3
1599 1600 3
